DATASET = "thpack6";
INSTANCE = "054";

WIDTH = 233;
HEIGHT = 220;
LENGTH = 587;

NO_OF_SHAPES = 15;
size = [|
  99,68,23 |
  68,52,40 |
  101,66,61 |
  57,56,22 |
  81,54,47 |
  86,34,25 |
  54,46,27 |
  95,65,34 |
  105,57,29 |
  120,63,28 |
  64,62,42 |
  78,65,21 |
  98,94,45 |
  94,58,26 |
  113,81,51 |
|];

verticality = [|
  0,0,1 |
  1,1,1 |
  1,1,1 |
  0,0,1 |
  1,1,1 |
  0,1,1 |
  0,1,1 |
  0,1,1 |
  0,1,1 |
  0,0,1 |
  1,1,1 |
  0,0,1 |
  0,0,1 |
  0,0,1 |
  0,1,1 |
|];

box_count = [
  17,
  12,
  10,
  14,
  12,
  11,
  14,
  13,
  13,
  8,
  8,
  10,
  8,
  9,
  6,
];
